33D32945 STP File, STP Format Version 1.0

SECTION Comments
Name    "estein1-00"
Creator "OR-Library" (J E Beasley)
Problem "Rectilinear Steiner Minimum Tree"
Remark  "Converted automatically, problem 0/45."
END

SECTION Graph
Nodes 5
END

SECTION Coordinates
DDD 1 .7 .96 0.63
DDD 2 .88 .46 0.10
DDD 3 .88 .16 0.83
DDD 4 .19 .26 0.51
DDD 5 .19 .06 0.88
END

EOF

33D32945 STP File, STP Format Version 1.0

SECTION Comments
Name    "estein1-01"
Creator "OR-Library" (J E Beasley)
Problem "Rectilinear Steiner Minimum Tree"
Remark  "Converted automatically, problem 1/45."
END

SECTION Graph
Nodes 6
END

SECTION Coordinates
DDD 1 .21 .51 0.89
DDD 2 .36 .77 0.07
DDD 3 .36 .25 0.58
DDD 4 .66 .77 0.55
DDD 5 .66 .25 0.65
DDD 6 .81 .51 0.21
END

EOF

33D32945 STP File, STP Format Version 1.0

SECTION Comments
Name    "estein1-02"
Creator "OR-Library" (J E Beasley)
Problem "Rectilinear Steiner Minimum Tree"
Remark  "Converted automatically, problem 2/45."
END

SECTION Graph
Nodes 7
END

SECTION Coordinates
DDD 1 .33 .14 0.08
DDD 2 .68 .14 0.98
DDD 3 .89 .41 0.59
DDD 4 .81 .75 0.06
DDD 5 .50 .90 0.17
DDD 6 .19 .75 0.12
DDD 7 .11 .41 1.00
END

EOF

33D32945 STP File, STP Format Version 1.0

SECTION Comments
Name    "estein1-03"
Creator "OR-Library" (J E Beasley)
Problem "Rectilinear Steiner Minimum Tree"
Remark  "Converted automatically, problem 3/45."
END

SECTION Graph
Nodes 8
END

SECTION Coordinates
DDD 1 .40 .89 0.53
DDD 2 .70 .85 0.08
DDD 3 .89 .60 0.60
DDD 4 .85 .30 0.66
DDD 5 .60 .12 0.07
DDD 6 .30 .16 0.25
DDD 7 .11 .40 0.24
DDD 8 .15 .70 0.03
END

EOF

33D32945 STP File, STP Format Version 1.0

SECTION Comments
Name    "estein1-04"
Creator "OR-Library" (J E Beasley)
Problem "Rectilinear Steiner Minimum Tree"
Remark  "Converted automatically, problem 4/45."
END

SECTION Graph
Nodes 6
END

SECTION Coordinates
DDD 1 .30 .86 0.73
DDD 2 .70 .86 0.37
DDD 3 .90 .50 0.03
DDD 4 .70 .13 0.15
DDD 5 .30 .13 0.88
DDD 6 .10 .50 0.46
END

EOF

33D32945 STP File, STP Format Version 1.0

SECTION Comments
Name    "estein1-05"
Creator "OR-Library" (J E Beasley)
Problem "Rectilinear Steiner Minimum Tree"
Remark  "Converted automatically, problem 5/45."
END

SECTION Graph
Nodes 12
END

SECTION Coordinates
DDD 1 .03 .50 0.92
DDD 2 .20 .60 0.99
DDD 3 .37 .50 0.12
DDD 4 .37 .30 0.07
DDD 5 .20 .20 0.51
DDD 6 .03 .30 0.11
DDD 7 .63 .50 0.17
DDD 8 .80 .60 0.79
DDD 9 .97 .50 0.40
DDD 10 .97 .30 0.21
DDD 11 .80 .20 0.02
DDD 12 .63 .30 0.45
END

EOF

33D32945 STP File, STP Format Version 1.0

SECTION Comments
Name    "estein1-06"
Creator "OR-Library" (J E Beasley)
Problem "Rectilinear Steiner Minimum Tree"
Remark  "Converted automatically, problem 6/45."
END

SECTION Graph
Nodes 12
END

SECTION Coordinates
DDD 1 .03 .50 0.32
DDD 2 .20 .60 0.56
DDD 3 .37 .50 0.71
DDD 4 .37 .30 0.79
DDD 5 .20 0 0.27
DDD 6 .03 .30 0.34
DDD 7 .53 .50 0.64
DDD 8 .70 .60 0.40
DDD 9 .87 .50 0.55
DDD 10 .87 .30 0.08
DDD 11 .70 .20 0.93
DDD 12 .53 .30 0.75
END

EOF

33D32945 STP File, STP Format Version 1.0

SECTION Comments
Name    "estein1-07"
Creator "OR-Library" (J E Beasley)
Problem "Rectilinear Steiner Minimum Tree"
Remark  "Converted automatically, problem 7/45."
END

SECTION Graph
Nodes 12
END

SECTION Coordinates
DDD 1 0 .40 0.66
DDD 2 .10 .57 0.27
DDD 3 .30 .57 0.80
DDD 4 .40 .40 0.73
DDD 5 .30 .23 0.42
DDD 6 .10 .23 0.90
DDD 7 .70 .57 0.19
DDD 8 .90 .57 0.82
DDD 9 1.00 .40 0.45
DDD 10 .90 .23 0.23
DDD 11 .70 .23 0.08
DDD 12 .60 .40 0.77
END

EOF

33D32945 STP File, STP Format Version 1.0

SECTION Comments
Name    "estein1-08"
Creator "OR-Library" (J E Beasley)
Problem "Rectilinear Steiner Minimum Tree"
Remark  "Converted automatically, problem 8/45."
END

SECTION Graph
Nodes 7
END

SECTION Coordinates
DDD 1 .21 .51 0.34
DDD 2 .36 .77 0.24
DDD 3 .36 .25 0.47
DDD 4 .66 .77 0.05
DDD 5 .66 .25 0.10
DDD 6 .81 .51 0.12
DDD 7 .51 .51 0.80
END

EOF

33D32945 STP File, STP Format Version 1.0

SECTION Comments
Name    "estein1-09"
Creator "OR-Library" (J E Beasley)
Problem "Rectilinear Steiner Minimum Tree"
Remark  "Converted automatically, problem 9/45."
END

SECTION Graph
Nodes 6
END

SECTION Coordinates
DDD 1 .14 .45 0.69
DDD 2 .21 .27 0.33
DDD 3 .75 .19 0.31
DDD 4 .87 .34 0.52
DDD 5 .67 .84 0.87
DDD 6 .48 .86 0.79
END

EOF

33D32945 STP File, STP Format Version 1.0

SECTION Comments
Name    "estein1-10"
Creator "OR-Library" (J E Beasley)
Problem "Rectilinear Steiner Minimum Tree"
Remark  "Converted automatically, problem 10/45."
END

SECTION Graph
Nodes 6
END

SECTION Coordinates
DDD 1 .41 .98 0.76
DDD 2 .76 .89 0.67
DDD 3 .46 .61 0.66
DDD 4 .41 .36 0.07
DDD 5 .15 .23 0.94
DDD 6 .33 .20 0.19
END

EOF

33D32945 STP File, STP Format Version 1.0

SECTION Comments
Name    "estein1-11"
Creator "OR-Library" (J E Beasley)
Problem "Rectilinear Steiner Minimum Tree"
Remark  "Converted automatically, problem 11/45."
END

SECTION Graph
Nodes 9
END

SECTION Coordinates
DDD 1 .35 0 0.20
DDD 2 .15 .10 0.65
DDD 3 .45 .20 0.39
DDD 4 .15 .30 0.53
DDD 5 .45 .40 0.98
DDD 6 .15 .50 0.36
DDD 7 .45 .60 0.62
DDD 8 .15 .70 0.57
DDD 9 .35 .80 0.98
END

EOF

33D32945 STP File, STP Format Version 1.0

SECTION Comments
Name    "estein1-12"
Creator "OR-Library" (J E Beasley)
Problem "Rectilinear Steiner Minimum Tree"
Remark  "Converted automatically, problem 12/45."
END

SECTION Graph
Nodes 9
END

SECTION Coordinates
DDD 1 .10 .25 0.82
DDD 2 .30 .35 0.49
DDD 3 0 .40 0.28
DDD 4 .40 .40 0.19
DDD 5 0 .50 0.13
DDD 6 .50 .55 0.63
DDD 7 .30 .65 0.26
DDD 8 0 .70 0.12
DDD 9 .20 .70 0.71
END

EOF

33D32945 STP File, STP Format Version 1.0

SECTION Comments
Name    "estein1-13"
Creator "OR-Library" (J E Beasley)
Problem "Rectilinear Steiner Minimum Tree"
Remark  "Converted automatically, problem 13/45."
END

SECTION Graph
Nodes 12
END

SECTION Coordinates
DDD 1 .10 .10 0.44
DDD 2 .15 .15 0.25
DDD 3 .20 .20 0.42
DDD 4 .20 .80 0.88
DDD 5 .15 .85 0.22
DDD 6 .10 .90 0.91
DDD 7 .80 .80 0.69
DDD 8 .85 .85 0.47
DDD 9 .90 .90 0.47
DDD 10 .80 .20 0.99
DDD 11 .85 .15 0.89
DDD 12 .90 .10 0.20
END

EOF

33D32945 STP File, STP Format Version 1.0

SECTION Comments
Name    "estein1-14"
Creator "OR-Library" (J E Beasley)
Problem "Rectilinear Steiner Minimum Tree"
Remark  "Converted automatically, problem 14/45."
END

SECTION Graph
Nodes 14
END

SECTION Coordinates
DDD 1 .25 .11 0.34
DDD 2 .20 .13 0.47
DDD 3 .13 .20 0.35
DDD 4 .10 .30 0.81
DDD 5 .13 .40 0.57
DDD 6 .20 .48 0.74
DDD 7 .30 .50 0.94
DDD 8 .40 .48 0.09
DDD 9 .48 .40 0.72
DDD 10 .50 .30 0.49
DDD 11 .48 .20 0.86
DDD 12 .45 .17 0.85
DDD 13 .30 .16 0.60
DDD 14 .32 0 0.61
END

EOF

33D32945 STP File, STP Format Version 1.0

SECTION Comments
Name    "estein1-15"
Creator "OR-Library" (J E Beasley)
Problem "Rectilinear Steiner Minimum Tree"
Remark  "Converted automatically, problem 15/45."
END

SECTION Graph
Nodes 3
END

SECTION Coordinates
DDD 1 .10 1 0.05
DDD 2 .40 .80 0.93
DDD 3 .80 .10 0.39
END

EOF

33D32945 STP File, STP Format Version 1.0

SECTION Comments
Name    "estein1-16"
Creator "OR-Library" (J E Beasley)
Problem "Rectilinear Steiner Minimum Tree"
Remark  "Converted automatically, problem 16/45."
END

SECTION Graph
Nodes 10
END

SECTION Coordinates
DDD 1 .46 .74 0.08
DDD 2 .82 .56 0.13
DDD 3 .82 .38 0.19
DDD 4 .73 .10 0.86
DDD 5 .64 .01 0.29
DDD 6 .54 .01 0.18
DDD 7 .46 .01 0.19
DDD 8 .27 .20 0.84
DDD 9 .28 .38 0.62
DDD 10 .32 .56 0.82
END

EOF

33D32945 STP File, STP Format Version 1.0

SECTION Comments
Name    "estein1-17"
Creator "OR-Library" (J E Beasley)
Problem "Rectilinear Steiner Minimum Tree"
Remark  "Converted automatically, problem 17/45."
END

SECTION Graph
Nodes 62
END

SECTION Coordinates
DDD 1 .93 .20 0.49
DDD 2 .93 .27 0.04
DDD 3 .93 .34 0.08
DDD 4 .93 .41 0.94
DDD 5 .93 .48 0.61
DDD 6 .93 .54 0.62
DDD 7 .88 .44 0.18
DDD 8 .88 .30 0.04
DDD 9 .82 .20 0.20
DDD 10 .82 .27 0.75
DDD 11 .82 .34 0.32
DDD 12 .82 .41 0.83
DDD 13 .82 .47 0.80
DDD 14 .82 .55 0.15
DDD 15 .77 .51 0.22
DDD 16 .77 .23 0.49
DDD 17 .71 .55 0.50
DDD 18 .71 .47 0.64
DDD 19 .71 .41 0.35
DDD 20 .71 .27 0.97
DDD 21 .71 .20 0.40
DDD 22 .60 .55 0.96
DDD 23 .60 .47 0.98
DDD 24 .60 .41 0.96
DDD 25 .60 .34 0.44
DDD 26 .60 .27 0.63
DDD 27 .60 .20 0.66
DDD 28 .49 .55 0.25
DDD 29 .49 .51 0.80
DDD 30 .49 .47 0.15
DDD 31 .49 .38 0.90
DDD 32 .49 .34 0.00
DDD 33 .47 .27 0.12
DDD 34 .49 .23 0.98
DDD 35 .49 .20 0.21
DDD 36 .38 .20 0.99
DDD 37 .38 .27 0.84
DDD 38 .38 .34 0.21
DDD 39 .38 .41 0.54
DDD 40 .38 .47 0.73
DDD 41 .38 .55 0.94
DDD 42 .27 .41 1.00
DDD 43 .27 .47 0.93
DDD 44 .27 .55 0.99
DDD 45 .27 .27 0.50
DDD 46 .27 .20 0.33
DDD 47 .22 .23 0.63
DDD 48 .22 .51 0.23
DDD 49 .16 .55 0.92
DDD 50 .16 .47 0.66
DDD 51 .16 .41 0.59
DDD 52 .16 .34 0.03
DDD 53 .16 .27 0.86
DDD 54 .16 .20 0.14
DDD 55 .11 .44 0.46
DDD 56 .11 .30 0.72
DDD 57 .05 .55 1.00
DDD 58 .05 .47 0.60
DDD 59 .05 .41 0.35
DDD 60 .05 .34 0.78
DDD 61 .05 .27 0.90
DDD 62 .05 .20 0.11
END

EOF

33D32945 STP File, STP Format Version 1.0

SECTION Comments
Name    "estein1-18"
Creator "OR-Library" (J E Beasley)
Problem "Rectilinear Steiner Minimum Tree"
Remark  "Converted automatically, problem 18/45."
END

SECTION Graph
Nodes 14
END

SECTION Coordinates
DDD 1 .77 .55 0.92
DDD 2 .85 .55 0.53
DDD 3 .83 .52 0.75
DDD 4 .81 .49 0.95
DDD 5 .80 .48 0.79
DDD 6 .70 .50 0.55
DDD 7 .37 .41 0.30
DDD 8 .33 .48 0.67
DDD 9 .38 .74 0.47
DDD 10 .45 .75 0.99
DDD 11 .49 .22 0.48
DDD 12 .35 .21 0.72
DDD 13 .28 .05 0.58
DDD 14 .03 .12 0.89
END

EOF

33D32945 STP File, STP Format Version 1.0

SECTION Comments
Name    "estein1-19"
Creator "OR-Library" (J E Beasley)
Problem "Rectilinear Steiner Minimum Tree"
Remark  "Converted automatically, problem 19/45."
END

SECTION Graph
Nodes 3
END

SECTION Coordinates
DDD 1 .20 .90 0.76
DDD 2 .80 .90 0.02
DDD 3 .50 .38 0.68
END

EOF

33D32945 STP File, STP Format Version 1.0

SECTION Comments
Name    "estein1-20"
Creator "OR-Library" (J E Beasley)
Problem "Rectilinear Steiner Minimum Tree"
Remark  "Converted automatically, problem 20/45."
END

SECTION Graph
Nodes 5
END

SECTION Coordinates
DDD 1 .50 .90 0.11
DDD 2 .88 .62 0.95
DDD 3 .74 .18 0.71
DDD 4 .26 .18 0.21
DDD 5 .12 .62 0.22
END

EOF

33D32945 STP File, STP Format Version 1.0

SECTION Comments
Name    "estein1-21"
Creator "OR-Library" (J E Beasley)
Problem "Rectilinear Steiner Minimum Tree"
Remark  "Converted automatically, problem 21/45."
END

SECTION Graph
Nodes 4
END

SECTION Coordinates
DDD 1 .60 .50 0.59
DDD 2 .70 .65 0.49
DDD 3 .73 .53 1.00
DDD 4 .95 .40 0.77
END

EOF

33D32945 STP File, STP Format Version 1.0

SECTION Comments
Name    "estein1-22"
Creator "OR-Library" (J E Beasley)
Problem "Rectilinear Steiner Minimum Tree"
Remark  "Converted automatically, problem 22/45."
END

SECTION Graph
Nodes 4
END

SECTION Coordinates
DDD 1 .60 .50 0.13
DDD 2 .70 .65 0.88
DDD 3 .75 .58 0.46
DDD 4 .95 .40 0.61
END

EOF

33D32945 STP File, STP Format Version 1.0

SECTION Comments
Name    "estein1-23"
Creator "OR-Library" (J E Beasley)
Problem "Rectilinear Steiner Minimum Tree"
Remark  "Converted automatically, problem 23/45."
END

SECTION Graph
Nodes 4
END

SECTION Coordinates
DDD 1 .20 .13 0.07
DDD 2 .25 .11 0.14
DDD 3 .30 .16 0.99
DDD 4 .32 0 0.83
END

EOF

33D32945 STP File, STP Format Version 1.0

SECTION Comments
Name    "estein1-24"
Creator "OR-Library" (J E Beasley)
Problem "Rectilinear Steiner Minimum Tree"
Remark  "Converted automatically, problem 24/45."
END

SECTION Graph
Nodes 3
END

SECTION Coordinates
DDD 1 .25 .11 0.39
DDD 2 .30 .16 0.36
DDD 3 .32 0 0.29
END

EOF

33D32945 STP File, STP Format Version 1.0

SECTION Comments
Name    "estein1-25"
Creator "OR-Library" (J E Beasley)
Problem "Rectilinear Steiner Minimum Tree"
Remark  "Converted automatically, problem 25/45."
END

SECTION Graph
Nodes 3
END

SECTION Coordinates
DDD 1 .20 .13 0.30
DDD 2 .25 .11 0.24
DDD 3 .30 .16 0.67
END

EOF

33D32945 STP File, STP Format Version 1.0

SECTION Comments
Name    "estein1-26"
Creator "OR-Library" (J E Beasley)
Problem "Rectilinear Steiner Minimum Tree"
Remark  "Converted automatically, problem 26/45."
END

SECTION Graph
Nodes 4
END

SECTION Coordinates
DDD 1 .03 .44 0.65
DDD 2 .80 .55 0.17
DDD 3 1 .20 1.00
DDD 4 .19 .45 0.04
END

EOF

33D32945 STP File, STP Format Version 1.0

SECTION Comments
Name    "estein1-27"
Creator "OR-Library" (J E Beasley)
Problem "Rectilinear Steiner Minimum Tree"
Remark  "Converted automatically, problem 27/45."
END

SECTION Graph
Nodes 4
END

SECTION Coordinates
DDD 1 .25 .11 0.59
DDD 2 .30 .16 0.30
DDD 3 .25 .12 0.40
DDD 4 .32 0 0.27
END

EOF

33D32945 STP File, STP Format Version 1.0

SECTION Comments
Name    "estein1-28"
Creator "OR-Library" (J E Beasley)
Problem "Rectilinear Steiner Minimum Tree"
Remark  "Converted automatically, problem 28/45."
END

SECTION Graph
Nodes 3
END

SECTION Coordinates
DDD 1 0 1 0.69
DDD 2 .90 0 0.90
DDD 3 1 .1 0.38
END

EOF

33D32945 STP File, STP Format Version 1.0

SECTION Comments
Name    "estein1-29"
Creator "OR-Library" (J E Beasley)
Problem "Rectilinear Steiner Minimum Tree"
Remark  "Converted automatically, problem 29/45."
END

SECTION Graph
Nodes 12
END

SECTION Coordinates
DDD 1 .25 .10 0.94
DDD 2 .35 .10 0.43
DDD 3 .45 .10 0.16
DDD 4 .20 .20 0.84
DDD 5 .30 .20 0.05
DDD 6 .40 .20 0.43
DDD 7 .50 .20 0.23
DDD 8 .25 .30 0.06
DDD 9 .35 .30 0.70
DDD 10 .45 .30 0.34
DDD 11 .30 .40 0.69
DDD 12 .40 .40 0.66
END

EOF

33D32945 STP File, STP Format Version 1.0

SECTION Comments
Name    "estein1-30"
Creator "OR-Library" (J E Beasley)
Problem "Rectilinear Steiner Minimum Tree"
Remark  "Converted automatically, problem 30/45."
END

SECTION Graph
Nodes 14
END

SECTION Coordinates
DDD 1 .50 .90 0.60
DDD 2 .82 .75 0.23
DDD 3 .89 .41 0.61
DDD 4 .68 .14 0.81
DDD 5 .32 .14 0.47
DDD 6 .12 .38 0.93
DDD 7 .19 .76 0.94
DDD 8 .39 .75 0.96
DDD 9 .62 .75 0.29
DDD 10 .76 .59 0.39
DDD 11 .72 .33 0.38
DDD 12 .50 .23 0.29
DDD 13 .29 .33 0.40
DDD 14 .24 .57 0.85
END

EOF

33D32945 STP File, STP Format Version 1.0

SECTION Comments
Name    "estein1-31"
Creator "OR-Library" (J E Beasley)
Problem "Rectilinear Steiner Minimum Tree"
Remark  "Converted automatically, problem 31/45."
END

SECTION Graph
Nodes 19
END

SECTION Coordinates
DDD 1 .50 .90 0.17
DDD 2 .82 .75 0.46
DDD 3 .89 .41 0.17
DDD 4 .68 .14 0.49
DDD 5 .32 .14 0.54
DDD 6 .12 .38 0.80
DDD 7 .19 .76 0.34
DDD 8 .39 .75 0.47
DDD 9 .62 .75 0.35
DDD 10 .76 .59 0.59
DDD 11 .72 .33 0.51
DDD 12 .50 .23 0.79
DDD 13 .29 .33 0.74
DDD 14 .24 .57 0.09
DDD 15 .41 .58 0.07
DDD 16 .50 .62 0.31
DDD 17 .60 .58 0.16
DDD 18 .62 .47 0.16
DDD 19 .50 .50 0.61
END

EOF

33D32945 STP File, STP Format Version 1.0

SECTION Comments
Name    "estein1-32"
Creator "OR-Library" (J E Beasley)
Problem "Rectilinear Steiner Minimum Tree"
Remark  "Converted automatically, problem 32/45."
END

SECTION Graph
Nodes 18
END

SECTION Coordinates
DDD 1 .10 .85 0.57
DDD 2 .25 .72 0.34
DDD 3 .38 .66 0.26
DDD 4 .53 .66 0.19
DDD 5 .65 .72 0.77
DDD 6 .80 .85 0.40
DDD 7 .68 .70 0.22
DDD 8 .61 .58 0.86
DDD 9 .61 .43 0.35
DDD 10 .68 .30 0.74
DDD 11 .80 .17 0.24
DDD 12 .65 .28 0.19
DDD 13 .45 .35 0.75
DDD 14 .25 .27 1.00
DDD 15 .10 .17 0.02
DDD 16 .23 .30 0.45
DDD 17 .30 .50 0.83
DDD 18 .23 .70 0.84
END

EOF

33D32945 STP File, STP Format Version 1.0

SECTION Comments
Name    "estein1-33"
Creator "OR-Library" (J E Beasley)
Problem "Rectilinear Steiner Minimum Tree"
Remark  "Converted automatically, problem 33/45."
END

SECTION Graph
Nodes 19
END

SECTION Coordinates
DDD 1 .40 .54 0.96
DDD 2 .54 .63 0.12
DDD 3 .67 .54 0.99
DDD 4 .63 .38 0.40
DDD 5 .48 .35 0.75
DDD 6 .41 .41 0.02
DDD 7 .34 .38 0.39
DDD 8 .21 .48 0.93
DDD 9 .10 .39 0.03
DDD 10 .10 .27 0.74
DDD 11 .21 .21 0.63
DDD 12 .32 .28 0.82
DDD 13 .39 .22 0.07
DDD 14 .47 .27 0.58
DDD 15 .59 .24 0.33
DDD 16 .65 .12 0.14
DDD 17 .58 .03 0.48
DDD 18 .45 .02 0.90
DDD 19 .36 .10 0.25
END

EOF

33D32945 STP File, STP Format Version 1.0

SECTION Comments
Name    "estein1-34"
Creator "OR-Library" (J E Beasley)
Problem "Rectilinear Steiner Minimum Tree"
Remark  "Converted automatically, problem 34/45."
END

SECTION Graph
Nodes 18
END

SECTION Coordinates
DDD 1 .48 .45 0.29
DDD 2 .54 .40 0.82
DDD 3 .53 .33 0.18
DDD 4 .45 .30 0.19
DDD 5 .38 .37 0.19
DDD 6 .40 .45 0.33
DDD 7 .25 .32 0.34
DDD 8 .22 .38 0.02
DDD 9 .15 .36 0.93
DDD 10 .12 .27 0.04
DDD 11 .16 .21 0.55
DDD 12 .23 .23 0.61
DDD 13 .34 .15 0.78
DDD 14 .42 .18 0.24
DDD 15 .48 .15 0.58
DDD 16 .45 .08 0.58
DDD 17 .38 .06 0.09
DDD 18 .33 .10 0.52
END

EOF

33D32945 STP File, STP Format Version 1.0

SECTION Comments
Name    "estein1-35"
Creator "OR-Library" (J E Beasley)
Problem "Rectilinear Steiner Minimum Tree"
Remark  "Converted automatically, problem 35/45."
END

SECTION Graph
Nodes 4
END

SECTION Coordinates
DDD 1 .10 .08 0.95
DDD 2 .10 .20 0.55
DDD 3 .80 .20 0.95
DDD 4 .80 .28 0.31
END

EOF

33D32945 STP File, STP Format Version 1.0

SECTION Comments
Name    "estein1-36"
Creator "OR-Library" (J E Beasley)
Problem "Rectilinear Steiner Minimum Tree"
Remark  "Converted automatically, problem 36/45."
END

SECTION Graph
Nodes 8
END

SECTION Coordinates
DDD 1 .25 .20 0.31
DDD 2 .31 .09 0.83
DDD 3 .39 .08 0.11
DDD 4 .48 .10 0.16
DDD 5 .48 .30 0.42
DDD 6 .56 .32 0.79
DDD 7 .64 .28 0.06
DDD 8 .70 .20 0.58
END

EOF

33D32945 STP File, STP Format Version 1.0

SECTION Comments
Name    "estein1-37"
Creator "OR-Library" (J E Beasley)
Problem "Rectilinear Steiner Minimum Tree"
Remark  "Converted automatically, problem 37/45."
END

SECTION Graph
Nodes 14
END

SECTION Coordinates
DDD 1 .49 .06 0.95
DDD 2 .55 .13 0.14
DDD 3 .57 .23 0.93
DDD 4 .55 .30 0.23
DDD 5 .53 .36 0.02
DDD 6 .48 .44 0.15
DDD 7 .48 .59 0.84
DDD 8 .18 .59 0.06
DDD 9 .18 .44 0.58
DDD 10 .13 .36 0.67
DDD 11 .11 .26 0.24
DDD 12 .11 .18 0.74
DDD 13 .16 .11 0.18
DDD 14 .22 .06 0.78
END

EOF

33D32945 STP File, STP Format Version 1.0

SECTION Comments
Name    "estein1-38"
Creator "OR-Library" (J E Beasley)
Problem "Rectilinear Steiner Minimum Tree"
Remark  "Converted automatically, problem 38/45."
END

SECTION Graph
Nodes 14
END

SECTION Coordinates
DDD 1 .24 .06 0.27
DDD 2 .49 .06 0.08
DDD 3 .55 .13 0.29
DDD 4 .57 .23 0.48
DDD 5 .55 .30 0.75
DDD 6 .53 .36 0.24
DDD 7 .48 .44 0.73
DDD 8 .48 .59 0.86
DDD 9 .18 .59 0.56
DDD 10 .18 .44 0.36
DDD 11 .13 .36 0.79
DDD 12 .11 .26 0.04
DDD 13 .11 .18 0.57
DDD 14 .16 .11 0.50
END

EOF

33D32945 STP File, STP Format Version 1.0

SECTION Comments
Name    "estein1-39"
Creator "OR-Library" (J E Beasley)
Problem "Rectilinear Steiner Minimum Tree"
Remark  "Converted automatically, problem 39/45."
END

SECTION Graph
Nodes 10
END

SECTION Coordinates
DDD 1 .31 .69 0.59
DDD 2 .18 .60 0.13
DDD 3 .30 .50 0.35
DDD 4 .18 .40 0.17
DDD 5 .28 .31 0.51
DDD 6 .64 .69 0.75
DDD 7 .71 .58 0.26
DDD 8 .60 .50 0.45
DDD 9 .72 .37 0.53
DDD 10 .60 .30 0.19
END

EOF

33D32945 STP File, STP Format Version 1.0

SECTION Comments
Name    "estein1-40"
Creator "OR-Library" (J E Beasley)
Problem "Rectilinear Steiner Minimum Tree"
Remark  "Converted automatically, problem 40/45."
END

SECTION Graph
Nodes 20
END

SECTION Coordinates
DDD 1 0 .40 0.58
DDD 2 0 .50 0.82
DDD 3 .03 .60 0.16
DDD 4 .10 .65 0.87
DDD 5 .20 .60 0.58
DDD 6 .20 .48 0.52
DDD 7 .30 .40 0.06
DDD 8 .37 .45 0.59
DDD 9 .39 .60 0.05
DDD 10 .45 .65 0.58
DDD 11 .50 .65 0.39
DDD 12 .54 .60 0.63
DDD 13 .54 .48 0.50
DDD 14 .63 .40 0.48
DDD 15 .70 .50 0.43
DDD 16 .72 .60 0.38
DDD 17 .80 .68 0.87
DDD 18 .89 .65 0.54
DDD 19 .90 .51 0.41
DDD 20 .90 .41 0.40
END

EOF

33D32945 STP File, STP Format Version 1.0

SECTION Comments
Name    "estein1-41"
Creator "OR-Library" (J E Beasley)
Problem "Rectilinear Steiner Minimum Tree"
Remark  "Converted automatically, problem 41/45."
END

SECTION Graph
Nodes 15
END

SECTION Coordinates
DDD 1 .25 .11 0.02
DDD 2 .20 .13 0.67
DDD 3 .13 .20 0.21
DDD 4 .10 .30 0.05
DDD 5 .13 .40 0.40
DDD 6 .20 .48 0.19
DDD 7 .30 .50 0.52
DDD 8 .40 .48 0.03
DDD 9 .48 .40 0.68
DDD 10 .50 .30 0.95
DDD 11 .48 .20 1.00
DDD 12 .45 .17 0.02
DDD 13 .40 .13 0.87
DDD 14 .30 .10 0.31
DDD 15 .30 .30 0.42
END

EOF

33D32945 STP File, STP Format Version 1.0

SECTION Comments
Name    "estein1-42"
Creator "OR-Library" (J E Beasley)
Problem "Rectilinear Steiner Minimum Tree"
Remark  "Converted automatically, problem 42/45."
END

SECTION Graph
Nodes 16
END

SECTION Coordinates
DDD 1 .62 .68 0.44
DDD 2 .73 .40 0.66
DDD 3 .72 .26 0.61
DDD 4 .56 .05 0.11
DDD 5 .34 0 0.31
DDD 6 .12 .10 0.16
DDD 7 .03 .32 0.21
DDD 8 .09 .53 0.96
DDD 9 .27 .62 0.78
DDD 10 .34 .40 0.05
DDD 11 .41 .37 0.44
DDD 12 .42 .30 0.00
DDD 13 .40 .27 0.45
DDD 14 .35 .27 0.63
DDD 15 .29 .31 0.79
DDD 16 .30 .37 0.19
END

EOF

33D32945 STP File, STP Format Version 1.0

SECTION Comments
Name    "estein1-43"
Creator "OR-Library" (J E Beasley)
Problem "Rectilinear Steiner Minimum Tree"
Remark  "Converted automatically, problem 43/45."
END

SECTION Graph
Nodes 17
END

SECTION Coordinates
DDD 1 .05 .52 0.14
DDD 2 .05 .28 0.81
DDD 3 .14 .07 0.60
DDD 4 .24 .01 0.02
DDD 5 .46 .01 0.98
DDD 6 .65 .13 0.25
DDD 7 .72 .31 0.38
DDD 8 .70 .49 0.92
DDD 9 .58 .60 0.71
DDD 10 .43 .59 0.16
DDD 11 .37 .53 0.66
DDD 12 .38 .47 0.25
DDD 13 .46 .47 0.07
DDD 14 .46 .39 0.90
DDD 15 .39 .36 0.05
DDD 16 .34 .35 0.62
DDD 17 .30 .39 0.48
END

EOF

33D32945 STP File, STP Format Version 1.0

SECTION Comments
Name    "estein1-44"
Creator "OR-Library" (J E Beasley)
Problem "Rectilinear Steiner Minimum Tree"
Remark  "Converted automatically, problem 44/45."
END

SECTION Graph
Nodes 19
END

SECTION Coordinates
DDD 1 .08 .08 0.52
DDD 2 .26 .05 0.71
DDD 3 .45 .08 0.64
DDD 4 .59 .18 0.82
DDD 5 .65 .34 0.00
DDD 6 .63 .53 0.56
DDD 7 .45 .66 0.04
DDD 8 .24 .61 0.98
DDD 9 .19 .42 0.19
DDD 10 .29 .35 0.50
DDD 11 .36 .35 0.77
DDD 12 .40 .38 0.91
DDD 13 .42 .43 0.14
DDD 14 .38 .48 0.15
DDD 15 .35 .49 0.93
DDD 16 .31 .47 0.55
DDD 17 .30 .45 0.13
DDD 18 .34 .43 0.82
DDD 19 .32 .43 0.18
END

EOF

33D32945 STP File, STP Format Version 1.0

SECTION Comments
Name    "estein1-45"
Creator "OR-Library" (J E Beasley)
Problem "Rectilinear Steiner Minimum Tree"
Remark  "Converted automatically, problem 45/45."
END

SECTION Graph
Nodes 16
END

SECTION Coordinates
DDD 1 .20 .10 0.49
DDD 2 .20 .20 0.88
DDD 3 .20 .30 0.43
DDD 4 .20 .40 0.50
DDD 5 .30 .10 0.92
DDD 6 .30 .20 0.13
DDD 7 .30 .30 0.49
DDD 8 .30 .40 0.53
DDD 9 .40 .10 0.82
DDD 10 .40 .20 0.35
DDD 11 .40 .30 0.02
DDD 12 .40 .40 0.55
DDD 13 .50 .10 0.73
DDD 14 .50 .20 0.70
DDD 15 .50 .30 0.80
DDD 16 .50 .40 0.36
END

EOF

